NAME: sim-grid-A-30
TYPE: TSP
COMMENT: Semi-regular Grid
DIMENSION: 30
EDGE_WEIGHT_TYPE: EUC_2D
NODE_COORD_SECTION
1 250 50
2 750 50
3 400 100
4 950 100
5 200 300
6 700 300
7 800 300
8 1000 300
9 1300 300
10 700 350
11 1000 350
12 250 550
13 400 550
14 600 550
15 950 550
16 1300 550
17 400 600
18 950 600
19 450 800
20 650 800
21 1050 800
22 1350 800
23 1550 800
24 150 850
25 350 850
26 650 850
27 950 850
28 1050 850
29 1250 850
30 1550 850
EOF
